&CONTROL
  calculation = 'scf',
  pseudo_dir = '/projects/academic/alexeyak/Software/PSEUDO/SSSP/SSSP_acc_PBE/',
  outdir = './',
  prefix = 'x',
  tprnfor = .true.
/

&SYSTEM
  ibrav = 0,
  celldm(1) = 1.89 ,
  nat = 6,
  ntyp = 2,
  nspin = 2,
  nbnd = 20,
  ecutwfc = 30,
  tot_charge = 0.0,
  starting_magnetization(1) = 0.01
  occupations = 'smearing',
  smearing = 'gaussian',
  degauss = 0.005,
  nosym = .true.,
/

&ELECTRONS
  electron_maxstep = 300,
  conv_thr = 1.D-5,
  mixing_beta = 0.45,
/

&IONS
  ion_dynamics = 'verlet',
  ion_temperature = 'andersen',
  tempw = 300.00 ,
  nraise = 1,
/


ATOMIC_SPECIES
 C  12.01  C_pbe_v1.2.uspp.F.UPF
 H  1.008  H.pbe-rrkjus_psl.0.1.UPF


K_POINTS gamma                  
                               
CELL_PARAMETERS
    15.0000000    0.0000000    0.0000000
     0.0000000   15.0000000    0.0000000
     0.0000000    0.0000000   15.0000000
 
ATOMIC_POSITIONS (alat)

C      -5.0438525       2.3198921       0.0152615  
C      -3.7139755       2.3075474      -0.0019796  
H      -5.6655527       1.5742840      -0.5119001  
H      -5.5577440       3.1129645       0.5250631  
H      -3.1452522       1.4738456      -0.4991882  
H      -3.2079585       3.0816853       0.4940751  
 $END 
