&CONTROL
  calculation = 'scf',
  pseudo_dir = '/projects/academic/alexeyak/Software/PSEUDO/SSSP/SSSP_acc_PBE/',
  outdir = './',
  prefix = 'x',
  tprnfor = .true.
/

&SYSTEM
  ibrav = 0,
  celldm(1) = 1.89 ,
  nat = 6,
  ntyp = 2,
  nspin = 2,
  nbnd = 20,
  ecutwfc = 30,
  tot_charge = 0.0,
  starting_magnetization(1) = 0.01
  occupations = 'smearing',
  smearing = 'gaussian',
  degauss = 0.005,
  nosym = .true.,
/

&ELECTRONS
  electron_maxstep = 300,
  conv_thr = 1.D-5,
  mixing_beta = 0.45,
/

&IONS
  ion_dynamics = 'verlet',
  ion_temperature = 'andersen',
  tempw = 300.00 ,
  nraise = 1,
/


ATOMIC_SPECIES
 C  12.01  C_pbe_v1.2.uspp.F.UPF
 H  1.008  H.pbe-rrkjus_psl.0.1.UPF


K_POINTS gamma                  
                               
CELL_PARAMETERS
    15.0000000    0.0000000    0.0000000
     0.0000000   15.0000000    0.0000000
     0.0000000    0.0000000   15.0000000
 
ATOMIC_POSITIONS (alat)

C      -5.0401828       2.3205247       0.0069113  
C      -3.7196278       2.3167913       0.0004858  
H      -5.6293322       1.4934994      -0.4632252  
H      -5.6839320       3.0983653       0.4518081  
H      -3.1355440       1.5169094      -0.5037230  
H      -3.1040736       3.0163154       0.5933124  
 $END 
